p cnf 252 1620
1 -121 0
1 -122 0
121 -121 0
122 -122 0
21 -127 0
21 -128 0
127 -127 0
128 -128 0
41 -133 0
41 -134 0
133 -133 0
134 -134 0
61 -139 0
61 -140 0
139 -139 0
140 -140 0
81 -145 0
81 -146 0
145 -145 0
146 -146 0
101 -151 0
101 -152 0
151 -151 0
152 -152 0
2 -121 0
2 -122 0
121 -121 0
122 -122 0
22 -127 0
22 -128 0
127 -127 0
128 -128 0
42 -133 0
42 -134 0
133 -133 0
134 -134 0
62 -139 0
62 -140 0
139 -139 0
140 -140 0
82 -145 0
82 -146 0
145 -145 0
146 -146 0
102 -151 0
102 -152 0
151 -151 0
152 -152 0
3 -157 -121 0
-3 157 -121 0
3 157 -122 0
-3 -157 -122 0
23 -157 -127 0
-23 157 -127 0
23 157 -128 0
-23 -157 -128 0
43 -157 -133 0
-43 157 -133 0
43 157 -134 0
-43 -157 -134 0
63 -157 -139 0
-63 157 -139 0
63 157 -140 0
-63 -157 -140 0
83 -157 -145 0
-83 157 -145 0
83 157 -146 0
-83 -157 -146 0
103 -157 -151 0
-103 157 -151 0
103 157 -152 0
-103 -157 -152 0
4 -158 -121 0
-4 158 -121 0
4 158 -122 0
-4 -158 -122 0
24 -158 -127 0
-24 158 -127 0
24 158 -128 0
-24 -158 -128 0
44 -158 -133 0
-44 158 -133 0
44 158 -134 0
-44 -158 -134 0
64 -158 -139 0
-64 158 -139 0
64 158 -140 0
-64 -158 -140 0
84 -158 -145 0
-84 158 -145 0
84 158 -146 0
-84 -158 -146 0
104 -158 -151 0
-104 158 -151 0
104 158 -152 0
-104 -158 -152 0
5 -159 -121 0
-5 159 -121 0
5 159 -122 0
-5 -159 -122 0
25 -159 -127 0
-25 159 -127 0
25 159 -128 0
-25 -159 -128 0
45 -159 -133 0
-45 159 -133 0
45 159 -134 0
-45 -159 -134 0
65 -159 -139 0
-65 159 -139 0
65 159 -140 0
-65 -159 -140 0
85 -159 -145 0
-85 159 -145 0
85 159 -146 0
-85 -159 -146 0
105 -159 -151 0
-105 159 -151 0
105 159 -152 0
-105 -159 -152 0
6 -121 0
6 -122 0
121 -121 0
122 -122 0
26 -127 0
26 -128 0
127 -127 0
128 -128 0
46 -133 0
46 -134 0
133 -133 0
134 -134 0
66 -139 0
66 -140 0
139 -139 0
140 -140 0
86 -145 0
86 -146 0
145 -145 0
146 -146 0
106 -151 0
106 -152 0
151 -151 0
152 -152 0
7 -160 -121 0
-7 160 -121 0
7 160 -122 0
-7 -160 -122 0
27 -160 -127 0
-27 160 -127 0
27 160 -128 0
-27 -160 -128 0
47 -160 -133 0
-47 160 -133 0
47 160 -134 0
-47 -160 -134 0
67 -160 -139 0
-67 160 -139 0
67 160 -140 0
-67 -160 -140 0
87 -160 -145 0
-87 160 -145 0
87 160 -146 0
-87 -160 -146 0
107 -160 -151 0
-107 160 -151 0
107 160 -152 0
-107 -160 -152 0
-8 -121 0
-8 -122 0
121 -121 0
122 -122 0
-28 -127 0
-28 -128 0
127 -127 0
128 -128 0
-48 -133 0
-48 -134 0
133 -133 0
134 -134 0
-68 -139 0
-68 -140 0
139 -139 0
140 -140 0
-88 -145 0
-88 -146 0
145 -145 0
146 -146 0
-108 -151 0
-108 -152 0
151 -151 0
152 -152 0
9 -121 0
9 -122 0
121 -121 0
122 -122 0
29 -127 0
29 -128 0
127 -127 0
128 -128 0
49 -133 0
49 -134 0
133 -133 0
134 -134 0
69 -139 0
69 -140 0
139 -139 0
140 -140 0
89 -145 0
89 -146 0
145 -145 0
146 -146 0
109 -151 0
109 -152 0
151 -151 0
152 -152 0
10 -121 0
10 -122 0
121 -121 0
122 -122 0
30 -127 0
30 -128 0
127 -127 0
128 -128 0
50 -133 0
50 -134 0
133 -133 0
134 -134 0
70 -139 0
70 -140 0
139 -139 0
140 -140 0
90 -145 0
90 -146 0
145 -145 0
146 -146 0
110 -151 0
110 -152 0
151 -151 0
152 -152 0
11 -121 0
11 -122 0
121 -121 0
122 -122 0
31 -127 0
31 -128 0
127 -127 0
128 -128 0
51 -133 0
51 -134 0
133 -133 0
134 -134 0
71 -139 0
71 -140 0
139 -139 0
140 -140 0
91 -145 0
91 -146 0
145 -145 0
146 -146 0
111 -151 0
111 -152 0
151 -151 0
152 -152 0
12 -161 -121 0
-12 161 -121 0
12 161 -122 0
-12 -161 -122 0
32 -161 -127 0
-32 161 -127 0
32 161 -128 0
-32 -161 -128 0
52 -161 -133 0
-52 161 -133 0
52 161 -134 0
-52 -161 -134 0
72 -161 -139 0
-72 161 -139 0
72 161 -140 0
-72 -161 -140 0
92 -161 -145 0
-92 161 -145 0
92 161 -146 0
-92 -161 -146 0
112 -161 -151 0
-112 161 -151 0
112 161 -152 0
-112 -161 -152 0
13 -162 -121 0
-13 162 -121 0
13 162 -122 0
-13 -162 -122 0
33 -162 -127 0
-33 162 -127 0
33 162 -128 0
-33 -162 -128 0
53 -162 -133 0
-53 162 -133 0
53 162 -134 0
-53 -162 -134 0
73 -162 -139 0
-73 162 -139 0
73 162 -140 0
-73 -162 -140 0
93 -162 -145 0
-93 162 -145 0
93 162 -146 0
-93 -162 -146 0
113 -162 -151 0
-113 162 -151 0
113 162 -152 0
-113 -162 -152 0
14 -163 -121 0
-14 163 -121 0
14 163 -122 0
-14 -163 -122 0
34 -163 -127 0
-34 163 -127 0
34 163 -128 0
-34 -163 -128 0
54 -163 -133 0
-54 163 -133 0
54 163 -134 0
-54 -163 -134 0
74 -163 -139 0
-74 163 -139 0
74 163 -140 0
-74 -163 -140 0
94 -163 -145 0
-94 163 -145 0
94 163 -146 0
-94 -163 -146 0
114 -163 -151 0
-114 163 -151 0
114 163 -152 0
-114 -163 -152 0
-15 -121 0
-15 -122 0
121 -121 0
122 -122 0
-35 -127 0
-35 -128 0
127 -127 0
128 -128 0
-55 -133 0
-55 -134 0
133 -133 0
134 -134 0
-75 -139 0
-75 -140 0
139 -139 0
140 -140 0
-95 -145 0
-95 -146 0
145 -145 0
146 -146 0
-115 -151 0
-115 -152 0
151 -151 0
152 -152 0
16 -164 -121 0
-16 164 -121 0
16 164 -122 0
-16 -164 -122 0
36 -164 -127 0
-36 164 -127 0
36 164 -128 0
-36 -164 -128 0
56 -164 -133 0
-56 164 -133 0
56 164 -134 0
-56 -164 -134 0
76 -164 -139 0
-76 164 -139 0
76 164 -140 0
-76 -164 -140 0
96 -164 -145 0
-96 164 -145 0
96 164 -146 0
-96 -164 -146 0
116 -164 -151 0
-116 164 -151 0
116 164 -152 0
-116 -164 -152 0
17 -121 0
17 -122 0
121 -121 0
122 -122 0
37 -127 0
37 -128 0
127 -127 0
128 -128 0
57 -133 0
57 -134 0
133 -133 0
134 -134 0
77 -139 0
77 -140 0
139 -139 0
140 -140 0
97 -145 0
97 -146 0
145 -145 0
146 -146 0
117 -151 0
117 -152 0
151 -151 0
152 -152 0
18 -121 0
18 -122 0
121 -121 0
122 -122 0
38 -127 0
38 -128 0
127 -127 0
128 -128 0
58 -133 0
58 -134 0
133 -133 0
134 -134 0
78 -139 0
78 -140 0
139 -139 0
140 -140 0
98 -145 0
98 -146 0
145 -145 0
146 -146 0
118 -151 0
118 -152 0
151 -151 0
152 -152 0
19 -121 0
19 -122 0
121 -121 0
122 -122 0
39 -127 0
39 -128 0
127 -127 0
128 -128 0
59 -133 0
59 -134 0
133 -133 0
134 -134 0
79 -139 0
79 -140 0
139 -139 0
140 -140 0
99 -145 0
99 -146 0
145 -145 0
146 -146 0
119 -151 0
119 -152 0
151 -151 0
152 -152 0
20 -121 0
20 -122 0
121 -121 0
122 -122 0
40 -127 0
40 -128 0
127 -127 0
128 -128 0
60 -133 0
60 -134 0
133 -133 0
134 -134 0
80 -139 0
80 -140 0
139 -139 0
140 -140 0
100 -145 0
100 -146 0
145 -145 0
146 -146 0
120 -151 0
120 -152 0
151 -151 0
152 -152 0
-217 121 0
217 -121 0
-218 122 0
217 -122 0
-217 -121 0
-218 -122 0
-223 121 217 0
223 -121 0
223 -217 0
-224 122 218 0
224 -122 0
224 -218 0
-223 -127 0
-224 -128 0
-229 127 223 0
229 -127 0
229 -223 0
-230 128 224 0
230 -128 0
230 -224 0
-229 -133 0
-230 -134 0
-235 133 229 0
235 -133 0
235 -229 0
-236 134 230 0
236 -134 0
236 -230 0
-235 -139 0
-236 -140 0
-241 139 235 0
241 -139 0
241 -235 0
-242 140 236 0
242 -140 0
242 -236 0
-241 -145 0
-242 -146 0
-247 145 241 0
247 -145 0
247 -241 0
-248 146 242 0
248 -146 0
248 -242 0
-247 -151 0
-248 -152 0
247 0
248 0
1 -123 0
1 -124 0
123 -123 0
124 -124 0
21 -129 0
21 -130 0
129 -129 0
130 -130 0
41 -135 0
41 -136 0
135 -135 0
136 -136 0
61 -141 0
61 -142 0
141 -141 0
142 -142 0
81 -147 0
81 -148 0
147 -147 0
148 -148 0
101 -153 0
101 -154 0
153 -153 0
154 -154 0
2 -123 0
2 -124 0
123 -123 0
124 -124 0
22 -129 0
22 -130 0
129 -129 0
130 -130 0
42 -135 0
42 -136 0
135 -135 0
136 -136 0
62 -141 0
62 -142 0
141 -141 0
142 -142 0
82 -147 0
82 -148 0
147 -147 0
148 -148 0
102 -153 0
102 -154 0
153 -153 0
154 -154 0
3 -165 -123 0
-3 165 -123 0
3 165 -124 0
-3 -165 -124 0
23 -165 -129 0
-23 165 -129 0
23 165 -130 0
-23 -165 -130 0
43 -165 -135 0
-43 165 -135 0
43 165 -136 0
-43 -165 -136 0
63 -165 -141 0
-63 165 -141 0
63 165 -142 0
-63 -165 -142 0
83 -165 -147 0
-83 165 -147 0
83 165 -148 0
-83 -165 -148 0
103 -165 -153 0
-103 165 -153 0
103 165 -154 0
-103 -165 -154 0
4 -123 0
4 -124 0
123 -123 0
124 -124 0
24 -129 0
24 -130 0
129 -129 0
130 -130 0
44 -135 0
44 -136 0
135 -135 0
136 -136 0
64 -141 0
64 -142 0
141 -141 0
142 -142 0
84 -147 0
84 -148 0
147 -147 0
148 -148 0
104 -153 0
104 -154 0
153 -153 0
154 -154 0
5 -123 0
5 -124 0
123 -123 0
124 -124 0
25 -129 0
25 -130 0
129 -129 0
130 -130 0
45 -135 0
45 -136 0
135 -135 0
136 -136 0
65 -141 0
65 -142 0
141 -141 0
142 -142 0
85 -147 0
85 -148 0
147 -147 0
148 -148 0
105 -153 0
105 -154 0
153 -153 0
154 -154 0
6 -123 0
6 -124 0
123 -123 0
124 -124 0
26 -129 0
26 -130 0
129 -129 0
130 -130 0
46 -135 0
46 -136 0
135 -135 0
136 -136 0
66 -141 0
66 -142 0
141 -141 0
142 -142 0
86 -147 0
86 -148 0
147 -147 0
148 -148 0
106 -153 0
106 -154 0
153 -153 0
154 -154 0
7 -123 0
7 -124 0
123 -123 0
124 -124 0
27 -129 0
27 -130 0
129 -129 0
130 -130 0
47 -135 0
47 -136 0
135 -135 0
136 -136 0
67 -141 0
67 -142 0
141 -141 0
142 -142 0
87 -147 0
87 -148 0
147 -147 0
148 -148 0
107 -153 0
107 -154 0
153 -153 0
154 -154 0
8 -123 0
8 -124 0
123 -123 0
124 -124 0
28 -129 0
28 -130 0
129 -129 0
130 -130 0
48 -135 0
48 -136 0
135 -135 0
136 -136 0
68 -141 0
68 -142 0
141 -141 0
142 -142 0
88 -147 0
88 -148 0
147 -147 0
148 -148 0
108 -153 0
108 -154 0
153 -153 0
154 -154 0
-9 -123 0
-9 -124 0
123 -123 0
124 -124 0
-29 -129 0
-29 -130 0
129 -129 0
130 -130 0
-49 -135 0
-49 -136 0
135 -135 0
136 -136 0
-69 -141 0
-69 -142 0
141 -141 0
142 -142 0
-89 -147 0
-89 -148 0
147 -147 0
148 -148 0
-109 -153 0
-109 -154 0
153 -153 0
154 -154 0
10 -123 0
10 -124 0
123 -123 0
124 -124 0
30 -129 0
30 -130 0
129 -129 0
130 -130 0
50 -135 0
50 -136 0
135 -135 0
136 -136 0
70 -141 0
70 -142 0
141 -141 0
142 -142 0
90 -147 0
90 -148 0
147 -147 0
148 -148 0
110 -153 0
110 -154 0
153 -153 0
154 -154 0
11 -123 0
11 -124 0
123 -123 0
124 -124 0
31 -129 0
31 -130 0
129 -129 0
130 -130 0
51 -135 0
51 -136 0
135 -135 0
136 -136 0
71 -141 0
71 -142 0
141 -141 0
142 -142 0
91 -147 0
91 -148 0
147 -147 0
148 -148 0
111 -153 0
111 -154 0
153 -153 0
154 -154 0
12 -123 0
12 -124 0
123 -123 0
124 -124 0
32 -129 0
32 -130 0
129 -129 0
130 -130 0
52 -135 0
52 -136 0
135 -135 0
136 -136 0
72 -141 0
72 -142 0
141 -141 0
142 -142 0
92 -147 0
92 -148 0
147 -147 0
148 -148 0
112 -153 0
112 -154 0
153 -153 0
154 -154 0
13 -123 0
13 -124 0
123 -123 0
124 -124 0
33 -129 0
33 -130 0
129 -129 0
130 -130 0
53 -135 0
53 -136 0
135 -135 0
136 -136 0
73 -141 0
73 -142 0
141 -141 0
142 -142 0
93 -147 0
93 -148 0
147 -147 0
148 -148 0
113 -153 0
113 -154 0
153 -153 0
154 -154 0
14 -123 0
14 -124 0
123 -123 0
124 -124 0
34 -129 0
34 -130 0
129 -129 0
130 -130 0
54 -135 0
54 -136 0
135 -135 0
136 -136 0
74 -141 0
74 -142 0
141 -141 0
142 -142 0
94 -147 0
94 -148 0
147 -147 0
148 -148 0
114 -153 0
114 -154 0
153 -153 0
154 -154 0
15 -123 0
15 -124 0
123 -123 0
124 -124 0
35 -129 0
35 -130 0
129 -129 0
130 -130 0
55 -135 0
55 -136 0
135 -135 0
136 -136 0
75 -141 0
75 -142 0
141 -141 0
142 -142 0
95 -147 0
95 -148 0
147 -147 0
148 -148 0
115 -153 0
115 -154 0
153 -153 0
154 -154 0
16 -123 0
16 -124 0
123 -123 0
124 -124 0
36 -129 0
36 -130 0
129 -129 0
130 -130 0
56 -135 0
56 -136 0
135 -135 0
136 -136 0
76 -141 0
76 -142 0
141 -141 0
142 -142 0
96 -147 0
96 -148 0
147 -147 0
148 -148 0
116 -153 0
116 -154 0
153 -153 0
154 -154 0
-17 -123 0
-17 -124 0
123 -123 0
124 -124 0
-37 -129 0
-37 -130 0
129 -129 0
130 -130 0
-57 -135 0
-57 -136 0
135 -135 0
136 -136 0
-77 -141 0
-77 -142 0
141 -141 0
142 -142 0
-97 -147 0
-97 -148 0
147 -147 0
148 -148 0
-117 -153 0
-117 -154 0
153 -153 0
154 -154 0
18 -123 0
18 -124 0
123 -123 0
124 -124 0
38 -129 0
38 -130 0
129 -129 0
130 -130 0
58 -135 0
58 -136 0
135 -135 0
136 -136 0
78 -141 0
78 -142 0
141 -141 0
142 -142 0
98 -147 0
98 -148 0
147 -147 0
148 -148 0
118 -153 0
118 -154 0
153 -153 0
154 -154 0
19 -166 -123 0
-19 166 -123 0
19 166 -124 0
-19 -166 -124 0
39 -166 -129 0
-39 166 -129 0
39 166 -130 0
-39 -166 -130 0
59 -166 -135 0
-59 166 -135 0
59 166 -136 0
-59 -166 -136 0
79 -166 -141 0
-79 166 -141 0
79 166 -142 0
-79 -166 -142 0
99 -166 -147 0
-99 166 -147 0
99 166 -148 0
-99 -166 -148 0
119 -166 -153 0
-119 166 -153 0
119 166 -154 0
-119 -166 -154 0
20 -167 -123 0
-20 167 -123 0
20 167 -124 0
-20 -167 -124 0
40 -167 -129 0
-40 167 -129 0
40 167 -130 0
-40 -167 -130 0
60 -167 -135 0
-60 167 -135 0
60 167 -136 0
-60 -167 -136 0
80 -167 -141 0
-80 167 -141 0
80 167 -142 0
-80 -167 -142 0
100 -167 -147 0
-100 167 -147 0
100 167 -148 0
-100 -167 -148 0
120 -167 -153 0
-120 167 -153 0
120 167 -154 0
-120 -167 -154 0
-219 123 0
219 -123 0
-220 124 0
219 -124 0
-219 -123 0
-220 -124 0
-225 123 219 0
225 -123 0
225 -219 0
-226 124 220 0
226 -124 0
226 -220 0
-225 -129 0
-226 -130 0
-231 129 225 0
231 -129 0
231 -225 0
-232 130 226 0
232 -130 0
232 -226 0
-231 -135 0
-232 -136 0
-237 135 231 0
237 -135 0
237 -231 0
-238 136 232 0
238 -136 0
238 -232 0
-237 -141 0
-238 -142 0
-243 141 237 0
243 -141 0
243 -237 0
-244 142 238 0
244 -142 0
244 -238 0
-243 -147 0
-244 -148 0
-249 147 243 0
249 -147 0
249 -243 0
-250 148 244 0
250 -148 0
250 -244 0
-249 -153 0
-250 -154 0
249 0
250 0
1 -125 0
1 -126 0
125 -125 0
126 -126 0
21 -131 0
21 -132 0
131 -131 0
132 -132 0
41 -137 0
41 -138 0
137 -137 0
138 -138 0
61 -143 0
61 -144 0
143 -143 0
144 -144 0
81 -149 0
81 -150 0
149 -149 0
150 -150 0
101 -155 0
101 -156 0
155 -155 0
156 -156 0
2 -125 0
2 -126 0
125 -125 0
126 -126 0
22 -131 0
22 -132 0
131 -131 0
132 -132 0
42 -137 0
42 -138 0
137 -137 0
138 -138 0
62 -143 0
62 -144 0
143 -143 0
144 -144 0
82 -149 0
82 -150 0
149 -149 0
150 -150 0
102 -155 0
102 -156 0
155 -155 0
156 -156 0
-3 -125 0
-3 -126 0
125 -125 0
126 -126 0
-23 -131 0
-23 -132 0
131 -131 0
132 -132 0
-43 -137 0
-43 -138 0
137 -137 0
138 -138 0
-63 -143 0
-63 -144 0
143 -143 0
144 -144 0
-83 -149 0
-83 -150 0
149 -149 0
150 -150 0
-103 -155 0
-103 -156 0
155 -155 0
156 -156 0
4 -168 -125 0
-4 168 -125 0
4 168 -126 0
-4 -168 -126 0
24 -168 -131 0
-24 168 -131 0
24 168 -132 0
-24 -168 -132 0
44 -168 -137 0
-44 168 -137 0
44 168 -138 0
-44 -168 -138 0
64 -168 -143 0
-64 168 -143 0
64 168 -144 0
-64 -168 -144 0
84 -168 -149 0
-84 168 -149 0
84 168 -150 0
-84 -168 -150 0
104 -168 -155 0
-104 168 -155 0
104 168 -156 0
-104 -168 -156 0
5 -169 -125 0
-5 169 -125 0
5 169 -126 0
-5 -169 -126 0
25 -169 -131 0
-25 169 -131 0
25 169 -132 0
-25 -169 -132 0
45 -169 -137 0
-45 169 -137 0
45 169 -138 0
-45 -169 -138 0
65 -169 -143 0
-65 169 -143 0
65 169 -144 0
-65 -169 -144 0
85 -169 -149 0
-85 169 -149 0
85 169 -150 0
-85 -169 -150 0
105 -169 -155 0
-105 169 -155 0
105 169 -156 0
-105 -169 -156 0
6 -125 0
6 -126 0
125 -125 0
126 -126 0
26 -131 0
26 -132 0
131 -131 0
132 -132 0
46 -137 0
46 -138 0
137 -137 0
138 -138 0
66 -143 0
66 -144 0
143 -143 0
144 -144 0
86 -149 0
86 -150 0
149 -149 0
150 -150 0
106 -155 0
106 -156 0
155 -155 0
156 -156 0
7 -125 0
7 -126 0
125 -125 0
126 -126 0
27 -131 0
27 -132 0
131 -131 0
132 -132 0
47 -137 0
47 -138 0
137 -137 0
138 -138 0
67 -143 0
67 -144 0
143 -143 0
144 -144 0
87 -149 0
87 -150 0
149 -149 0
150 -150 0
107 -155 0
107 -156 0
155 -155 0
156 -156 0
8 -125 0
8 -126 0
125 -125 0
126 -126 0
28 -131 0
28 -132 0
131 -131 0
132 -132 0
48 -137 0
48 -138 0
137 -137 0
138 -138 0
68 -143 0
68 -144 0
143 -143 0
144 -144 0
88 -149 0
88 -150 0
149 -149 0
150 -150 0
108 -155 0
108 -156 0
155 -155 0
156 -156 0
-9 -125 0
-9 -126 0
125 -125 0
126 -126 0
-29 -131 0
-29 -132 0
131 -131 0
132 -132 0
-49 -137 0
-49 -138 0
137 -137 0
138 -138 0
-69 -143 0
-69 -144 0
143 -143 0
144 -144 0
-89 -149 0
-89 -150 0
149 -149 0
150 -150 0
-109 -155 0
-109 -156 0
155 -155 0
156 -156 0
10 -125 0
10 -126 0
125 -125 0
126 -126 0
30 -131 0
30 -132 0
131 -131 0
132 -132 0
50 -137 0
50 -138 0
137 -137 0
138 -138 0
70 -143 0
70 -144 0
143 -143 0
144 -144 0
90 -149 0
90 -150 0
149 -149 0
150 -150 0
110 -155 0
110 -156 0
155 -155 0
156 -156 0
11 -125 0
11 -126 0
125 -125 0
126 -126 0
31 -131 0
31 -132 0
131 -131 0
132 -132 0
51 -137 0
51 -138 0
137 -137 0
138 -138 0
71 -143 0
71 -144 0
143 -143 0
144 -144 0
91 -149 0
91 -150 0
149 -149 0
150 -150 0
111 -155 0
111 -156 0
155 -155 0
156 -156 0
12 -125 0
12 -126 0
125 -125 0
126 -126 0
32 -131 0
32 -132 0
131 -131 0
132 -132 0
52 -137 0
52 -138 0
137 -137 0
138 -138 0
72 -143 0
72 -144 0
143 -143 0
144 -144 0
92 -149 0
92 -150 0
149 -149 0
150 -150 0
112 -155 0
112 -156 0
155 -155 0
156 -156 0
13 -125 0
13 -126 0
125 -125 0
126 -126 0
33 -131 0
33 -132 0
131 -131 0
132 -132 0
53 -137 0
53 -138 0
137 -137 0
138 -138 0
73 -143 0
73 -144 0
143 -143 0
144 -144 0
93 -149 0
93 -150 0
149 -149 0
150 -150 0
113 -155 0
113 -156 0
155 -155 0
156 -156 0
14 -125 0
14 -126 0
125 -125 0
126 -126 0
34 -131 0
34 -132 0
131 -131 0
132 -132 0
54 -137 0
54 -138 0
137 -137 0
138 -138 0
74 -143 0
74 -144 0
143 -143 0
144 -144 0
94 -149 0
94 -150 0
149 -149 0
150 -150 0
114 -155 0
114 -156 0
155 -155 0
156 -156 0
15 -125 0
15 -126 0
125 -125 0
126 -126 0
35 -131 0
35 -132 0
131 -131 0
132 -132 0
55 -137 0
55 -138 0
137 -137 0
138 -138 0
75 -143 0
75 -144 0
143 -143 0
144 -144 0
95 -149 0
95 -150 0
149 -149 0
150 -150 0
115 -155 0
115 -156 0
155 -155 0
156 -156 0
16 -125 0
16 -126 0
125 -125 0
126 -126 0
36 -131 0
36 -132 0
131 -131 0
132 -132 0
56 -137 0
56 -138 0
137 -137 0
138 -138 0
76 -143 0
76 -144 0
143 -143 0
144 -144 0
96 -149 0
96 -150 0
149 -149 0
150 -150 0
116 -155 0
116 -156 0
155 -155 0
156 -156 0
-17 -125 0
-17 -126 0
125 -125 0
126 -126 0
-37 -131 0
-37 -132 0
131 -131 0
132 -132 0
-57 -137 0
-57 -138 0
137 -137 0
138 -138 0
-77 -143 0
-77 -144 0
143 -143 0
144 -144 0
-97 -149 0
-97 -150 0
149 -149 0
150 -150 0
-117 -155 0
-117 -156 0
155 -155 0
156 -156 0
18 -125 0
18 -126 0
125 -125 0
126 -126 0
38 -131 0
38 -132 0
131 -131 0
132 -132 0
58 -137 0
58 -138 0
137 -137 0
138 -138 0
78 -143 0
78 -144 0
143 -143 0
144 -144 0
98 -149 0
98 -150 0
149 -149 0
150 -150 0
118 -155 0
118 -156 0
155 -155 0
156 -156 0
-19 -125 0
-19 -126 0
125 -125 0
126 -126 0
-39 -131 0
-39 -132 0
131 -131 0
132 -132 0
-59 -137 0
-59 -138 0
137 -137 0
138 -138 0
-79 -143 0
-79 -144 0
143 -143 0
144 -144 0
-99 -149 0
-99 -150 0
149 -149 0
150 -150 0
-119 -155 0
-119 -156 0
155 -155 0
156 -156 0
-20 -125 0
-20 -126 0
125 -125 0
126 -126 0
-40 -131 0
-40 -132 0
131 -131 0
132 -132 0
-60 -137 0
-60 -138 0
137 -137 0
138 -138 0
-80 -143 0
-80 -144 0
143 -143 0
144 -144 0
-100 -149 0
-100 -150 0
149 -149 0
150 -150 0
-120 -155 0
-120 -156 0
155 -155 0
156 -156 0
-221 125 0
221 -125 0
-222 126 0
221 -126 0
-221 -125 0
-222 -126 0
-227 125 221 0
227 -125 0
227 -221 0
-228 126 222 0
228 -126 0
228 -222 0
-227 -131 0
-228 -132 0
-233 131 227 0
233 -131 0
233 -227 0
-234 132 228 0
234 -132 0
234 -228 0
-233 -137 0
-234 -138 0
-239 137 233 0
239 -137 0
239 -233 0
-240 138 234 0
240 -138 0
240 -234 0
-239 -143 0
-240 -144 0
-245 143 239 0
245 -143 0
245 -239 0
-246 144 240 0
246 -144 0
246 -240 0
-245 -149 0
-246 -150 0
-251 149 245 0
251 -149 0
251 -245 0
-252 150 246 0
252 -150 0
252 -246 0
-251 -155 0
-252 -156 0
251 0
252 0
-121 128 134 140 146 152 0
-122 0
-127 134 140 146 152 0
-128 121 0
-133 140 146 152 0
-134 121 127 0
-139 146 152 0
-140 121 127 133 0
-145 152 0
-146 121 127 133 139 0
-151 0
-152 121 127 133 139 145 0
-123 130 136 142 148 154 0
-124 0
-129 136 142 148 154 0
-130 123 0
-135 142 148 154 0
-136 123 129 0
-141 148 154 0
-142 123 129 135 0
-147 154 0
-148 123 129 135 141 0
-153 0
-154 123 129 135 141 147 0
-125 132 138 144 150 156 0
-126 0
-131 138 144 150 156 0
-132 125 0
-137 144 150 156 0
-138 125 131 0
-143 150 156 0
-144 125 131 137 0
-149 156 0
-150 125 131 137 143 0
-155 0
-156 125 131 137 143 149 0
